NAME : n40w80.002.498.tour
COMMENT : Length = 498
COMMENT : Found by LKH [Keld Helsgaun] Tue Nov  7 19:35:16 2017
TYPE : TOUR
DIMENSION : 41
TOUR_SECTION
1
31
2
25
7
38
11
16
12
15
27
18
9
36
24
20
5
28
22
14
19
40
17
13
4
39
8
3
33
26
34
21
35
23
37
29
6
30
10
32
41
-1
EOF
